10  5
 0  6  3  5  2  9  1  5  4 12   7 189  10
 1  6  3  6  2 12  0  9  4 11  17 189   5
 1  6  3  9  2 14  0  5  4 10  19 185   5
 3 10  0  4  2 13  1  9  4  8   9 169   5
 1 11  3 10  2 13  0 10  4 13  35 175   5
 3  5  1  6  2 12  0  6  4 15  35 182   5
 1  9  0  9  2 12  3  8  4  8  32 188  10
 1 11  3  3  2 15  0 10  4 11   3 177  10
 1  7  3  6  2 12  0  7  4 10  36 180   5
 0 10  1  8  2 13  3  3  4 15  33 162   5
